c A SAT instance generated from a 3-CNF formula that had 31 clauses and 23 variables
p cnf 23 31
21 11 20 0
-1 2 -14 0
17 -4 2 0
-10 5 -23 0
23 -18 -19 0
-16 18 -12 0
-10 -7 4 0
3 -16 -18 0
22 1 16 0
-17 19 -13 0
-8 23 -3 0
21 20 -10 0
2 -6 -16 0
6 18 14 0
4 -2 -17 0
-22 7 21 0
17 -14 -12 0
5 18 -14 0
21 3 -12 0
-2 -17 21 0
-22 19 14 0
-19 8 -9 0
-18 -15 11 0
-15 -13 -21 0
-7 9 -23 0
-22 -19 -17 0
18 -7 -21 0
-4 7 12 0
-7 18 -8 0
13 18 7 0
-23 11 1 0
